c Random 6-CNF over 20 variables and 40 clauses
c Generated with `cnfgen`
c (C) 2012-2016 Massimo Lauria <lauria.massimo@gmail.com>
c https://massimolauria.github.io/cnfgen
c
c COMMAND LINE: cnfgen --output tmp-6-20-40.dimacs --output-format dimacs randkcnf 6 20 40
c
c sdimacs generated by gen-sdimacs
c
p cnf 20 40
r 0.5 1 2 3 4 5 6 7 8 9 10 0
e  11 12 13 14 15 16 17 18 19 20 0
-1 -3 10 11 14 16 0
-2 5 6 8 -12 13 0
8 -12 -16 -17 19 -20 0
1 3 5 8 13 16 0
-2 -7 8 10 15 -20 0
5 6 9 10 17 19 0
-5 -7 15 16 18 20 0
1 2 -6 14 -18 -20 0
2 -6 7 -13 -17 19 0
1 3 4 -7 13 14 0
2 6 7 8 -12 -17 0
3 -6 9 10 17 19 0
-7 -8 -10 11 13 -15 0
-3 11 12 -13 16 -17 0
8 11 -12 -13 14 -17 0
-1 -3 6 -10 -15 18 0
6 8 11 12 -17 -19 0
6 7 8 -13 -14 19 0
-3 -5 -10 11 12 -18 0
3 7 9 -12 17 -20 0
3 -6 8 10 17 -19 0
-3 4 -6 17 -19 -20 0
5 -9 -13 16 -19 -20 0
-1 -3 -5 -12 16 17 0
-2 7 10 13 17 -20 0
-1 2 -3 -11 13 -18 0
2 -3 4 7 15 20 0
1 -3 4 9 11 -12 0
1 7 9 -12 -15 -20 0
-3 -5 -7 -12 16 -17 0
-6 -11 -12 -15 19 20 0
2 -4 9 11 12 -18 0
-4 7 -14 -17 -18 19 0
-5 7 8 12 -13 -16 0
4 7 -9 -14 -17 -18 0
-2 8 13 -16 -19 20 0
-4 5 -9 11 -15 -20 0
1 -5 -7 9 15 -18 0
2 9 10 13 -14 -17 0
4 8 -9 -13 17 19 0
